(set-info :smt-lib-version 2.6)
(set-logic QF_NIA)
(set-info :source |
Generated by: Cristina Borralleras, Daniel Larraz, Albert Oliveras, Enric Rodriguez-Carbonell, Albert Rubio
Generated on: 2017-04-27
Generator: VeryMax
Application: Termination proving
Target solver: barcelogic
|)
(set-info :license "https://creativecommons.org/licenses/by/4.0/")
(set-info :category "industrial")
(set-info :status unknown)
(declare-fun Nl2a^01 () Int)
(declare-fun Nl2b^01 () Int)
(declare-fun Nl2c^01 () Int)
(declare-fun Nl2d^01 () Int)
(declare-fun Nl2e^01 () Int)
(declare-fun Nl2a^02 () Int)
(declare-fun Nl2b^02 () Int)
(declare-fun Nl2c^02 () Int)
(declare-fun Nl2d^02 () Int)
(declare-fun Nl2e^02 () Int)
(declare-fun lam0n0 () Int)
(declare-fun lam0n1 () Int)
(declare-fun lam0n3 () Int)
(declare-fun lam0n4 () Int)
(declare-fun lam0n5 () Int)
(declare-fun UndefCntr0_CT () Int)
(declare-fun Nl2CT1 () Int)
(declare-fun Nl2CT2 () Int)
(declare-fun UndefCntr0_a^0 () Int)
(declare-fun UndefCntr0_b^0 () Int)
(declare-fun UndefCntr0_c^0 () Int)
(declare-fun lam0n2 () Int)
(declare-fun UndefCntr0_d^0 () Int)
(declare-fun UndefCntr0_e^0 () Int)
(declare-fun UndefCntr0_undef22 () Int)
(declare-fun lam1n0 () Int)
(declare-fun lam1n1 () Int)
(declare-fun lam1n3 () Int)
(declare-fun lam1n4 () Int)
(declare-fun lam1n5 () Int)
(declare-fun lam1n2 () Int)
(declare-fun lam2n0 () Int)
(declare-fun lam2n1 () Int)
(declare-fun lam2n3 () Int)
(declare-fun lam2n4 () Int)
(declare-fun lam2n5 () Int)
(declare-fun lam2n2 () Int)
(declare-fun lam3n0 () Int)
(declare-fun lam3n1 () Int)
(declare-fun lam3n3 () Int)
(declare-fun lam3n4 () Int)
(declare-fun lam3n5 () Int)
(declare-fun UndefCntr1_CT () Int)
(declare-fun UndefCntr1_a^0 () Int)
(declare-fun UndefCntr1_b^0 () Int)
(declare-fun UndefCntr1_c^0 () Int)
(declare-fun UndefCntr1_d^0 () Int)
(declare-fun lam3n2 () Int)
(declare-fun UndefCntr1_e^0 () Int)
(declare-fun UndefCntr1_undef11 () Int)
(declare-fun lam4n0 () Int)
(declare-fun lam4n1 () Int)
(declare-fun lam4n3 () Int)
(declare-fun lam4n4 () Int)
(declare-fun lam4n5 () Int)
(declare-fun lam4n2 () Int)
(declare-fun lam5n0 () Int)
(declare-fun lam5n1 () Int)
(declare-fun lam5n3 () Int)
(declare-fun lam5n4 () Int)
(declare-fun lam5n5 () Int)
(declare-fun lam5n2 () Int)
(declare-fun lam6n0 () Int)
(declare-fun lam6n1 () Int)
(declare-fun lam6n2 () Int)
(declare-fun lam6n3 () Int)
(declare-fun lam6n4 () Int)
(declare-fun lam6n5 () Int)
(declare-fun lam7n0 () Int)
(declare-fun lam7n1 () Int)
(declare-fun lam7n2 () Int)
(declare-fun lam7n3 () Int)
(declare-fun lam7n4 () Int)
(declare-fun lam7n5 () Int)
(declare-fun undef1 () Int)
(declare-fun undef2 () Int)
(declare-fun undef3 () Int)
(declare-fun undef4 () Int)
(declare-fun undef5 () Int)
(declare-fun a^0 () Int)
(declare-fun b^0 () Int)
(declare-fun c^0 () Int)
(declare-fun d^0 () Int)
(declare-fun e^0 () Int)
(declare-fun lam8n0 () Int)
(declare-fun lam8n1 () Int)
(declare-fun lam8n2 () Int)
(declare-fun lam8n3 () Int)
(declare-fun lam9n0 () Int)
(declare-fun lam9n1 () Int)
(declare-fun lam9n2 () Int)
(declare-fun lam9n3 () Int)
(declare-fun UndefDef0undef22_CT () Int)
(declare-fun UndefDef0undef22_a^0 () Int)
(declare-fun UndefDef0undef22_b^0 () Int)
(declare-fun UndefDef0undef22_c^0 () Int)
(declare-fun UndefDef0undef22_d^0 () Int)
(declare-fun UndefDef0undef22_e^0 () Int)
(declare-fun lam10n0 () Int)
(declare-fun lam10n1 () Int)
(declare-fun lam10n2 () Int)
(declare-fun lam10n3 () Int)
(declare-fun lam11n0 () Int)
(declare-fun lam11n1 () Int)
(declare-fun lam11n2 () Int)
(declare-fun lam11n3 () Int)
(declare-fun lam12n0 () Int)
(declare-fun lam12n1 () Int)
(declare-fun lam12n2 () Int)
(declare-fun lam12n3 () Int)
(declare-fun lam13n0 () Int)
(declare-fun lam13n1 () Int)
(declare-fun lam13n2 () Int)
(declare-fun lam13n3 () Int)
(declare-fun UndefDef1undef11_CT () Int)
(declare-fun UndefDef1undef11_a^0 () Int)
(declare-fun UndefDef1undef11_b^0 () Int)
(declare-fun UndefDef1undef11_c^0 () Int)
(declare-fun UndefDef1undef11_d^0 () Int)
(declare-fun UndefDef1undef11_e^0 () Int)
(declare-fun lam14n0 () Int)
(declare-fun lam14n1 () Int)
(declare-fun lam14n2 () Int)
(declare-fun lam14n3 () Int)
(declare-fun lam15n0 () Int)
(declare-fun lam15n1 () Int)
(declare-fun lam15n2 () Int)
(declare-fun lam15n3 () Int)
(declare-fun lam16n0 () Int)
(declare-fun lam16n1 () Int)
(declare-fun lam16n2 () Int)
(declare-fun lam16n3 () Int)
(declare-fun lam16n4 () Int)
(declare-fun FV_d^0_2 () Int)
(declare-fun FV_a^0_2 () Int)
(declare-fun FV_b^0_2 () Int)
(declare-fun FV_c^0_2 () Int)
(declare-fun FV_e^0_2 () Int)
(declare-fun FV_undef22_2 () Int)
(declare-fun FV_undef11_2 () Int)
(assert ( and ( <= ( - 1 ) Nl2a^01 ) ( <= Nl2a^01 1 ) ( <= ( - 1 ) Nl2b^01 ) ( <= Nl2b^01 1 ) ( <= ( - 1 ) Nl2c^01 ) ( <= Nl2c^01 1 ) ( <= ( - 1 ) Nl2d^01 ) ( <= Nl2d^01 1 ) ( <= ( - 1 ) Nl2e^01 ) ( <= Nl2e^01 1 ) ( <= ( - 1 ) Nl2a^02 ) ( <= Nl2a^02 1 ) ( <= ( - 1 ) Nl2b^02 ) ( <= Nl2b^02 1 ) ( <= ( - 1 ) Nl2c^02 ) ( <= Nl2c^02 1 ) ( <= ( - 1 ) Nl2d^02 ) ( <= Nl2d^02 1 ) ( <= ( - 1 ) Nl2e^02 ) ( <= Nl2e^02 1 ) ))
(assert ( or ( and ( >= lam0n0 0 ) ( >= lam0n1 0 ) ( >= lam0n3 0 ) ( >= lam0n4 0 ) ( >= lam0n5 0 ) ( > ( + ( * 1 lam0n0 ) ( * UndefCntr0_CT lam0n3 ) ( * Nl2CT1 lam0n4 ) ( * Nl2CT2 lam0n5 ) ( - 1 ) ) 0 ) ( = ( + ( * ( - 1 ) lam0n1 ) ( * UndefCntr0_a^0 lam0n3 ) ( * Nl2a^01 lam0n4 ) ( * Nl2a^02 lam0n5 ) ) 0 ) ( = ( + ( * ( - 1 ) lam0n1 ) ( * UndefCntr0_b^0 lam0n3 ) ( * Nl2b^01 lam0n4 ) ( * Nl2b^02 lam0n5 ) ) 0 ) ( = ( + ( * ( - 1 ) lam0n1 ) ( * UndefCntr0_c^0 lam0n3 ) ( * Nl2c^01 lam0n4 ) ( * Nl2c^02 lam0n5 ) ) 0 ) ( = ( + ( * 1 lam0n0 ) ( * ( - 1 ) lam0n1 ) ( * 1 lam0n2 ) ( * UndefCntr0_d^0 lam0n3 ) ( * Nl2d^01 lam0n4 ) ( * Nl2d^02 lam0n5 ) ) 0 ) ( = ( + ( * ( - 1 ) lam0n1 ) ( * UndefCntr0_e^0 lam0n3 ) ( * Nl2e^01 lam0n4 ) ( * Nl2e^02 lam0n5 ) ) 0 ) ( = ( + ( * 1 lam0n2 ) ( * UndefCntr0_undef22 lam0n3 ) ) 0 ) ) ( and ( >= lam1n0 0 ) ( >= lam1n1 0 ) ( >= lam1n3 0 ) ( >= lam1n4 0 ) ( >= lam1n5 0 ) ( > ( + ( * 1 lam1n0 ) ( * UndefCntr0_CT lam1n3 ) ( * Nl2CT1 lam1n4 ) ( * Nl2CT2 lam1n5 ) ( - 1 ( + ( + ( + Nl2CT1 ( * Nl2c^01 0 ) ) ( * Nl2d^01 0 ) ) ( * Nl2e^01 0 ) ) ) ) 0 ) ( = ( + ( * ( - 1 ) lam1n1 ) ( * UndefCntr0_a^0 lam1n3 ) ( * Nl2a^01 lam1n4 ) ( * Nl2a^02 lam1n5 ) ( - ( + 0 Nl2a^01 ) ) ) 0 ) ( = ( + ( * ( - 1 ) lam1n1 ) ( * UndefCntr0_b^0 lam1n3 ) ( * Nl2b^01 lam1n4 ) ( * Nl2b^02 lam1n5 ) ( - ( + 0 Nl2b^01 ) ) ) 0 ) ( = ( + ( * ( - 1 ) lam1n1 ) ( * UndefCntr0_c^0 lam1n3 ) ( * Nl2c^01 lam1n4 ) ( * Nl2c^02 lam1n5 ) ( - ( + 0 ( * Nl2c^01 1 ) ) ) ) 0 ) ( = ( + ( * 1 lam1n0 ) ( * ( - 1 ) lam1n1 ) ( * 1 lam1n2 ) ( * UndefCntr0_d^0 lam1n3 ) ( * Nl2d^01 lam1n4 ) ( * Nl2d^02 lam1n5 ) ) 0 ) ( = ( + ( * ( - 1 ) lam1n1 ) ( * UndefCntr0_e^0 lam1n3 ) ( * Nl2e^01 lam1n4 ) ( * Nl2e^02 lam1n5 ) ( - ( + 0 ( * Nl2e^01 1 ) ) ) ) 0 ) ( = ( + ( * 1 lam1n2 ) ( * UndefCntr0_undef22 lam1n3 ) ( - ( + ( + ( + 0 ( * Nl2c^01 ( - 1 ) ) ) ( * Nl2d^01 1 ) ) ( * Nl2e^01 ( - 1 ) ) ) ) ) 0 ) ) ))
(assert ( or ( and ( >= lam0n0 0 ) ( >= lam0n1 0 ) ( >= lam0n3 0 ) ( >= lam0n4 0 ) ( >= lam0n5 0 ) ( > ( + ( * 1 lam0n0 ) ( * UndefCntr0_CT lam0n3 ) ( * Nl2CT1 lam0n4 ) ( * Nl2CT2 lam0n5 ) ( - 1 ) ) 0 ) ( = ( + ( * ( - 1 ) lam0n1 ) ( * UndefCntr0_a^0 lam0n3 ) ( * Nl2a^01 lam0n4 ) ( * Nl2a^02 lam0n5 ) ) 0 ) ( = ( + ( * ( - 1 ) lam0n1 ) ( * UndefCntr0_b^0 lam0n3 ) ( * Nl2b^01 lam0n4 ) ( * Nl2b^02 lam0n5 ) ) 0 ) ( = ( + ( * ( - 1 ) lam0n1 ) ( * UndefCntr0_c^0 lam0n3 ) ( * Nl2c^01 lam0n4 ) ( * Nl2c^02 lam0n5 ) ) 0 ) ( = ( + ( * 1 lam0n0 ) ( * ( - 1 ) lam0n1 ) ( * 1 lam0n2 ) ( * UndefCntr0_d^0 lam0n3 ) ( * Nl2d^01 lam0n4 ) ( * Nl2d^02 lam0n5 ) ) 0 ) ( = ( + ( * ( - 1 ) lam0n1 ) ( * UndefCntr0_e^0 lam0n3 ) ( * Nl2e^01 lam0n4 ) ( * Nl2e^02 lam0n5 ) ) 0 ) ( = ( + ( * 1 lam0n2 ) ( * UndefCntr0_undef22 lam0n3 ) ) 0 ) ) ( and ( >= lam2n0 0 ) ( >= lam2n1 0 ) ( >= lam2n3 0 ) ( >= lam2n4 0 ) ( >= lam2n5 0 ) ( > ( + ( * 1 lam2n0 ) ( * UndefCntr0_CT lam2n3 ) ( * Nl2CT1 lam2n4 ) ( * Nl2CT2 lam2n5 ) ( - 1 ( + ( + ( + Nl2CT2 ( * Nl2c^02 0 ) ) ( * Nl2d^02 0 ) ) ( * Nl2e^02 0 ) ) ) ) 0 ) ( = ( + ( * ( - 1 ) lam2n1 ) ( * UndefCntr0_a^0 lam2n3 ) ( * Nl2a^01 lam2n4 ) ( * Nl2a^02 lam2n5 ) ( - ( + 0 Nl2a^02 ) ) ) 0 ) ( = ( + ( * ( - 1 ) lam2n1 ) ( * UndefCntr0_b^0 lam2n3 ) ( * Nl2b^01 lam2n4 ) ( * Nl2b^02 lam2n5 ) ( - ( + 0 Nl2b^02 ) ) ) 0 ) ( = ( + ( * ( - 1 ) lam2n1 ) ( * UndefCntr0_c^0 lam2n3 ) ( * Nl2c^01 lam2n4 ) ( * Nl2c^02 lam2n5 ) ( - ( + 0 ( * Nl2c^02 1 ) ) ) ) 0 ) ( = ( + ( * 1 lam2n0 ) ( * ( - 1 ) lam2n1 ) ( * 1 lam2n2 ) ( * UndefCntr0_d^0 lam2n3 ) ( * Nl2d^01 lam2n4 ) ( * Nl2d^02 lam2n5 ) ) 0 ) ( = ( + ( * ( - 1 ) lam2n1 ) ( * UndefCntr0_e^0 lam2n3 ) ( * Nl2e^01 lam2n4 ) ( * Nl2e^02 lam2n5 ) ( - ( + 0 ( * Nl2e^02 1 ) ) ) ) 0 ) ( = ( + ( * 1 lam2n2 ) ( * UndefCntr0_undef22 lam2n3 ) ( - ( + ( + ( + 0 ( * Nl2c^02 ( - 1 ) ) ) ( * Nl2d^02 1 ) ) ( * Nl2e^02 ( - 1 ) ) ) ) ) 0 ) ) ))
(assert ( or ( and ( >= lam3n0 0 ) ( >= lam3n1 0 ) ( >= lam3n3 0 ) ( >= lam3n4 0 ) ( >= lam3n5 0 ) ( > ( + ( * 1 lam3n0 ) ( * UndefCntr1_CT lam3n3 ) ( * Nl2CT1 lam3n4 ) ( * Nl2CT2 lam3n5 ) ( - 1 ) ) 0 ) ( = ( + ( * ( - 1 ) lam3n1 ) ( * UndefCntr1_a^0 lam3n3 ) ( * Nl2a^01 lam3n4 ) ( * Nl2a^02 lam3n5 ) ) 0 ) ( = ( + ( * ( - 1 ) lam3n1 ) ( * UndefCntr1_b^0 lam3n3 ) ( * Nl2b^01 lam3n4 ) ( * Nl2b^02 lam3n5 ) ) 0 ) ( = ( + ( * ( - 1 ) lam3n1 ) ( * UndefCntr1_c^0 lam3n3 ) ( * Nl2c^01 lam3n4 ) ( * Nl2c^02 lam3n5 ) ) 0 ) ( = ( + ( * ( - 1 ) lam3n1 ) ( * UndefCntr1_d^0 lam3n3 ) ( * Nl2d^01 lam3n4 ) ( * Nl2d^02 lam3n5 ) ) 0 ) ( = ( + ( * 1 lam3n0 ) ( * ( - 1 ) lam3n1 ) ( * 1 lam3n2 ) ( * UndefCntr1_e^0 lam3n3 ) ( * Nl2e^01 lam3n4 ) ( * Nl2e^02 lam3n5 ) ) 0 ) ( = ( + ( * 1 lam3n2 ) ( * UndefCntr1_undef11 lam3n3 ) ) 0 ) ) ( and ( >= lam4n0 0 ) ( >= lam4n1 0 ) ( >= lam4n3 0 ) ( >= lam4n4 0 ) ( >= lam4n5 0 ) ( > ( + ( * 1 lam4n0 ) ( * UndefCntr1_CT lam4n3 ) ( * Nl2CT1 lam4n4 ) ( * Nl2CT2 lam4n5 ) ( - 1 ( + ( + ( + Nl2CT1 ( * Nl2a^01 0 ) ) ( * Nl2d^01 0 ) ) ( * Nl2e^01 0 ) ) ) ) 0 ) ( = ( + ( * ( - 1 ) lam4n1 ) ( * UndefCntr1_a^0 lam4n3 ) ( * Nl2a^01 lam4n4 ) ( * Nl2a^02 lam4n5 ) ( - ( + 0 ( * Nl2a^01 1 ) ) ) ) 0 ) ( = ( + ( * ( - 1 ) lam4n1 ) ( * UndefCntr1_b^0 lam4n3 ) ( * Nl2b^01 lam4n4 ) ( * Nl2b^02 lam4n5 ) ( - ( + 0 Nl2b^01 ) ) ) 0 ) ( = ( + ( * ( - 1 ) lam4n1 ) ( * UndefCntr1_c^0 lam4n3 ) ( * Nl2c^01 lam4n4 ) ( * Nl2c^02 lam4n5 ) ( - ( + 0 Nl2c^01 ) ) ) 0 ) ( = ( + ( * ( - 1 ) lam4n1 ) ( * UndefCntr1_d^0 lam4n3 ) ( * Nl2d^01 lam4n4 ) ( * Nl2d^02 lam4n5 ) ( - ( + 0 ( * Nl2d^01 1 ) ) ) ) 0 ) ( = ( + ( * 1 lam4n0 ) ( * ( - 1 ) lam4n1 ) ( * 1 lam4n2 ) ( * UndefCntr1_e^0 lam4n3 ) ( * Nl2e^01 lam4n4 ) ( * Nl2e^02 lam4n5 ) ) 0 ) ( = ( + ( * 1 lam4n2 ) ( * UndefCntr1_undef11 lam4n3 ) ( - ( + ( + ( + 0 ( * Nl2a^01 ( - 1 ) ) ) ( * Nl2d^01 ( - 1 ) ) ) ( * Nl2e^01 1 ) ) ) ) 0 ) ) ))
(assert ( or ( and ( >= lam3n0 0 ) ( >= lam3n1 0 ) ( >= lam3n3 0 ) ( >= lam3n4 0 ) ( >= lam3n5 0 ) ( > ( + ( * 1 lam3n0 ) ( * UndefCntr1_CT lam3n3 ) ( * Nl2CT1 lam3n4 ) ( * Nl2CT2 lam3n5 ) ( - 1 ) ) 0 ) ( = ( + ( * ( - 1 ) lam3n1 ) ( * UndefCntr1_a^0 lam3n3 ) ( * Nl2a^01 lam3n4 ) ( * Nl2a^02 lam3n5 ) ) 0 ) ( = ( + ( * ( - 1 ) lam3n1 ) ( * UndefCntr1_b^0 lam3n3 ) ( * Nl2b^01 lam3n4 ) ( * Nl2b^02 lam3n5 ) ) 0 ) ( = ( + ( * ( - 1 ) lam3n1 ) ( * UndefCntr1_c^0 lam3n3 ) ( * Nl2c^01 lam3n4 ) ( * Nl2c^02 lam3n5 ) ) 0 ) ( = ( + ( * ( - 1 ) lam3n1 ) ( * UndefCntr1_d^0 lam3n3 ) ( * Nl2d^01 lam3n4 ) ( * Nl2d^02 lam3n5 ) ) 0 ) ( = ( + ( * 1 lam3n0 ) ( * ( - 1 ) lam3n1 ) ( * 1 lam3n2 ) ( * UndefCntr1_e^0 lam3n3 ) ( * Nl2e^01 lam3n4 ) ( * Nl2e^02 lam3n5 ) ) 0 ) ( = ( + ( * 1 lam3n2 ) ( * UndefCntr1_undef11 lam3n3 ) ) 0 ) ) ( and ( >= lam5n0 0 ) ( >= lam5n1 0 ) ( >= lam5n3 0 ) ( >= lam5n4 0 ) ( >= lam5n5 0 ) ( > ( + ( * 1 lam5n0 ) ( * UndefCntr1_CT lam5n3 ) ( * Nl2CT1 lam5n4 ) ( * Nl2CT2 lam5n5 ) ( - 1 ( + ( + ( + Nl2CT2 ( * Nl2a^02 0 ) ) ( * Nl2d^02 0 ) ) ( * Nl2e^02 0 ) ) ) ) 0 ) ( = ( + ( * ( - 1 ) lam5n1 ) ( * UndefCntr1_a^0 lam5n3 ) ( * Nl2a^01 lam5n4 ) ( * Nl2a^02 lam5n5 ) ( - ( + 0 ( * Nl2a^02 1 ) ) ) ) 0 ) ( = ( + ( * ( - 1 ) lam5n1 ) ( * UndefCntr1_b^0 lam5n3 ) ( * Nl2b^01 lam5n4 ) ( * Nl2b^02 lam5n5 ) ( - ( + 0 Nl2b^02 ) ) ) 0 ) ( = ( + ( * ( - 1 ) lam5n1 ) ( * UndefCntr1_c^0 lam5n3 ) ( * Nl2c^01 lam5n4 ) ( * Nl2c^02 lam5n5 ) ( - ( + 0 Nl2c^02 ) ) ) 0 ) ( = ( + ( * ( - 1 ) lam5n1 ) ( * UndefCntr1_d^0 lam5n3 ) ( * Nl2d^01 lam5n4 ) ( * Nl2d^02 lam5n5 ) ( - ( + 0 ( * Nl2d^02 1 ) ) ) ) 0 ) ( = ( + ( * 1 lam5n0 ) ( * ( - 1 ) lam5n1 ) ( * 1 lam5n2 ) ( * UndefCntr1_e^0 lam5n3 ) ( * Nl2e^01 lam5n4 ) ( * Nl2e^02 lam5n5 ) ) 0 ) ( = ( + ( * 1 lam5n2 ) ( * UndefCntr1_undef11 lam5n3 ) ( - ( + ( + ( + 0 ( * Nl2a^02 ( - 1 ) ) ) ( * Nl2d^02 ( - 1 ) ) ) ( * Nl2e^02 1 ) ) ) ) 0 ) ) ))
(assert ( and ( <= ( + 1 ( * ( - 1 ) undef1 ) ( * ( - 1 ) undef2 ) ( * ( - 1 ) undef3 ) ( * ( - 1 ) undef4 ) ( * ( - 1 ) undef5 ) ) 0 ) ( = ( + a^0 ( * ( - 1 ) undef1 ) ) 0 ) ( = ( + b^0 ( * ( - 1 ) undef2 ) ) 0 ) ( = ( + c^0 ( * ( - 1 ) undef3 ) ) 0 ) ( = ( + d^0 ( * ( - 1 ) undef4 ) ) 0 ) ( = ( + e^0 ( * ( - 1 ) undef5 ) ) 0 ) ( <= ( + Nl2CT1 ( * ( + 0 Nl2a^01 ) a^0 ) ( * ( + 0 Nl2b^01 ) b^0 ) ( * ( + 0 Nl2c^01 ) c^0 ) ( * ( + 0 Nl2d^01 ) d^0 ) ( * ( + 0 Nl2e^01 ) e^0 ) ) 0 ) ( <= ( + Nl2CT2 ( * ( + 0 Nl2a^02 ) a^0 ) ( * ( + 0 Nl2b^02 ) b^0 ) ( * ( + 0 Nl2c^02 ) c^0 ) ( * ( + 0 Nl2d^02 ) d^0 ) ( * ( + 0 Nl2e^02 ) e^0 ) ) 0 ) ))
(assert ( or ( not ( = UndefCntr0_a^0 0 ) ) ( not ( = UndefCntr0_b^0 0 ) ) ( not ( = UndefCntr0_c^0 0 ) ) ( not ( = UndefCntr0_d^0 0 ) ) ( not ( = UndefCntr0_e^0 0 ) ) ( not ( = UndefCntr0_undef22 0 ) ) ( = UndefCntr0_CT 0 ) ))
(assert ( or ( and ( = UndefCntr0_a^0 0 ) ( = UndefCntr0_b^0 0 ) ( = UndefCntr0_c^0 0 ) ( = UndefCntr0_d^0 0 ) ( = UndefCntr0_e^0 0 ) ) ( not ( = UndefCntr0_undef22 0 ) ) ))
(assert ( or ( not ( = UndefCntr1_a^0 0 ) ) ( not ( = UndefCntr1_b^0 0 ) ) ( not ( = UndefCntr1_c^0 0 ) ) ( not ( = UndefCntr1_d^0 0 ) ) ( not ( = UndefCntr1_e^0 0 ) ) ( not ( = UndefCntr1_undef11 0 ) ) ( = UndefCntr1_CT 0 ) ))
(assert ( or ( and ( = UndefCntr1_a^0 0 ) ( = UndefCntr1_b^0 0 ) ( = UndefCntr1_c^0 0 ) ( = UndefCntr1_d^0 0 ) ( = UndefCntr1_e^0 0 ) ) ( not ( = UndefCntr1_undef11 0 ) ) ))
(assert ( or ( and ( >= lam8n0 0 ) ( >= lam8n1 0 ) ( >= lam8n2 0 ) ( >= lam8n3 0 ) ( > ( + ( * 1 lam8n0 ) ( * Nl2CT1 lam8n2 ) ( * Nl2CT2 lam8n3 ) ( - 1 ) ) 0 ) ( = ( + ( * ( - 1 ) lam8n1 ) ( * Nl2a^01 lam8n2 ) ( * Nl2a^02 lam8n3 ) ) 0 ) ( = ( + ( * ( - 1 ) lam8n1 ) ( * Nl2b^01 lam8n2 ) ( * Nl2b^02 lam8n3 ) ) 0 ) ( = ( + ( * ( - 1 ) lam8n1 ) ( * Nl2c^01 lam8n2 ) ( * Nl2c^02 lam8n3 ) ) 0 ) ( = ( + ( * 1 lam8n0 ) ( * ( - 1 ) lam8n1 ) ( * Nl2d^01 lam8n2 ) ( * Nl2d^02 lam8n3 ) ) 0 ) ( = ( + ( * ( - 1 ) lam8n1 ) ( * Nl2e^01 lam8n2 ) ( * Nl2e^02 lam8n3 ) ) 0 ) ) ( and ( and ( >= lam9n0 0 ) ( >= lam9n1 0 ) ( >= lam9n2 0 ) ( >= lam9n3 0 ) ( > ( + ( * 1 lam9n0 ) ( * Nl2CT1 lam9n2 ) ( * Nl2CT2 lam9n3 ) ( - 1 ( + ( + 0 0 ) ( * 1 UndefDef0undef22_CT ) ) ) ) 0 ) ( = ( + ( * ( - 1 ) lam9n1 ) ( * Nl2a^01 lam9n2 ) ( * Nl2a^02 lam9n3 ) ( - ( * UndefDef0undef22_a^0 1 ) ) ) 0 ) ( = ( + ( * ( - 1 ) lam9n1 ) ( * Nl2b^01 lam9n2 ) ( * Nl2b^02 lam9n3 ) ( - ( * UndefDef0undef22_b^0 1 ) ) ) 0 ) ( = ( + ( * ( - 1 ) lam9n1 ) ( * Nl2c^01 lam9n2 ) ( * Nl2c^02 lam9n3 ) ( - ( * UndefDef0undef22_c^0 1 ) ) ) 0 ) ( = ( + ( * 1 lam9n0 ) ( * ( - 1 ) lam9n1 ) ( * Nl2d^01 lam9n2 ) ( * Nl2d^02 lam9n3 ) ( - ( + 1 ( * UndefDef0undef22_d^0 1 ) ) ) ) 0 ) ( = ( + ( * ( - 1 ) lam9n1 ) ( * Nl2e^01 lam9n2 ) ( * Nl2e^02 lam9n3 ) ( - ( * UndefDef0undef22_e^0 1 ) ) ) 0 ) ) ( and ( >= lam10n0 0 ) ( >= lam10n1 0 ) ( >= lam10n2 0 ) ( >= lam10n3 0 ) ( > ( + ( * 1 lam10n0 ) ( * Nl2CT1 lam10n2 ) ( * Nl2CT2 lam10n3 ) ( - 1 ( - ( + ( + 0 0 ) ( * 1 UndefDef0undef22_CT ) ) ) ) ) 0 ) ( = ( + ( * ( - 1 ) lam10n1 ) ( * Nl2a^01 lam10n2 ) ( * Nl2a^02 lam10n3 ) ( - ( - ( * UndefDef0undef22_a^0 1 ) ) ) ) 0 ) ( = ( + ( * ( - 1 ) lam10n1 ) ( * Nl2b^01 lam10n2 ) ( * Nl2b^02 lam10n3 ) ( - ( - ( * UndefDef0undef22_b^0 1 ) ) ) ) 0 ) ( = ( + ( * ( - 1 ) lam10n1 ) ( * Nl2c^01 lam10n2 ) ( * Nl2c^02 lam10n3 ) ( - ( - ( * UndefDef0undef22_c^0 1 ) ) ) ) 0 ) ( = ( + ( * 1 lam10n0 ) ( * ( - 1 ) lam10n1 ) ( * Nl2d^01 lam10n2 ) ( * Nl2d^02 lam10n3 ) ( - ( - ( + 1 ( * UndefDef0undef22_d^0 1 ) ) ) ) ) 0 ) ( = ( + ( * ( - 1 ) lam10n1 ) ( * Nl2e^01 lam10n2 ) ( * Nl2e^02 lam10n3 ) ( - ( - ( * UndefDef0undef22_e^0 1 ) ) ) ) 0 ) ) ( or ( = UndefCntr0_undef22 0 ) ( and ( >= lam11n0 0 ) ( >= lam11n1 0 ) ( >= lam11n2 0 ) ( >= lam11n3 0 ) ( > ( + ( * 1 lam11n0 ) ( * Nl2CT1 lam11n2 ) ( * Nl2CT2 lam11n3 ) ( - 1 ( + ( + ( + ( + ( + ( + UndefCntr0_CT 0 ) 0 ) 0 ) 0 ) 0 ) ( * UndefCntr0_undef22 UndefDef0undef22_CT ) ) ) ) 0 ) ( = ( + ( * ( - 1 ) lam11n1 ) ( * Nl2a^01 lam11n2 ) ( * Nl2a^02 lam11n3 ) ( - ( + UndefCntr0_a^0 ( * UndefDef0undef22_a^0 UndefCntr0_undef22 ) ) ) ) 0 ) ( = ( + ( * ( - 1 ) lam11n1 ) ( * Nl2b^01 lam11n2 ) ( * Nl2b^02 lam11n3 ) ( - ( + UndefCntr0_b^0 ( * UndefDef0undef22_b^0 UndefCntr0_undef22 ) ) ) ) 0 ) ( = ( + ( * ( - 1 ) lam11n1 ) ( * Nl2c^01 lam11n2 ) ( * Nl2c^02 lam11n3 ) ( - ( + UndefCntr0_c^0 ( * UndefDef0undef22_c^0 UndefCntr0_undef22 ) ) ) ) 0 ) ( = ( + ( * 1 lam11n0 ) ( * ( - 1 ) lam11n1 ) ( * Nl2d^01 lam11n2 ) ( * Nl2d^02 lam11n3 ) ( - ( + UndefCntr0_d^0 ( * UndefDef0undef22_d^0 UndefCntr0_undef22 ) ) ) ) 0 ) ( = ( + ( * ( - 1 ) lam11n1 ) ( * Nl2e^01 lam11n2 ) ( * Nl2e^02 lam11n3 ) ( - ( + UndefCntr0_e^0 ( * UndefDef0undef22_e^0 UndefCntr0_undef22 ) ) ) ) 0 ) ) ) ) ))
(assert ( or ( and ( >= lam12n0 0 ) ( >= lam12n1 0 ) ( >= lam12n2 0 ) ( >= lam12n3 0 ) ( > ( + ( * 1 lam12n0 ) ( * Nl2CT1 lam12n2 ) ( * Nl2CT2 lam12n3 ) ( - 1 ) ) 0 ) ( = ( + ( * ( - 1 ) lam12n1 ) ( * Nl2a^01 lam12n2 ) ( * Nl2a^02 lam12n3 ) ) 0 ) ( = ( + ( * ( - 1 ) lam12n1 ) ( * Nl2b^01 lam12n2 ) ( * Nl2b^02 lam12n3 ) ) 0 ) ( = ( + ( * ( - 1 ) lam12n1 ) ( * Nl2c^01 lam12n2 ) ( * Nl2c^02 lam12n3 ) ) 0 ) ( = ( + ( * ( - 1 ) lam12n1 ) ( * Nl2d^01 lam12n2 ) ( * Nl2d^02 lam12n3 ) ) 0 ) ( = ( + ( * 1 lam12n0 ) ( * ( - 1 ) lam12n1 ) ( * Nl2e^01 lam12n2 ) ( * Nl2e^02 lam12n3 ) ) 0 ) ) ( and ( and ( >= lam13n0 0 ) ( >= lam13n1 0 ) ( >= lam13n2 0 ) ( >= lam13n3 0 ) ( > ( + ( * 1 lam13n0 ) ( * Nl2CT1 lam13n2 ) ( * Nl2CT2 lam13n3 ) ( - 1 ( + ( + 0 0 ) ( * 1 UndefDef1undef11_CT ) ) ) ) 0 ) ( = ( + ( * ( - 1 ) lam13n1 ) ( * Nl2a^01 lam13n2 ) ( * Nl2a^02 lam13n3 ) ( - ( * UndefDef1undef11_a^0 1 ) ) ) 0 ) ( = ( + ( * ( - 1 ) lam13n1 ) ( * Nl2b^01 lam13n2 ) ( * Nl2b^02 lam13n3 ) ( - ( * UndefDef1undef11_b^0 1 ) ) ) 0 ) ( = ( + ( * ( - 1 ) lam13n1 ) ( * Nl2c^01 lam13n2 ) ( * Nl2c^02 lam13n3 ) ( - ( * UndefDef1undef11_c^0 1 ) ) ) 0 ) ( = ( + ( * ( - 1 ) lam13n1 ) ( * Nl2d^01 lam13n2 ) ( * Nl2d^02 lam13n3 ) ( - ( * UndefDef1undef11_d^0 1 ) ) ) 0 ) ( = ( + ( * 1 lam13n0 ) ( * ( - 1 ) lam13n1 ) ( * Nl2e^01 lam13n2 ) ( * Nl2e^02 lam13n3 ) ( - ( + 1 ( * UndefDef1undef11_e^0 1 ) ) ) ) 0 ) ) ( and ( >= lam14n0 0 ) ( >= lam14n1 0 ) ( >= lam14n2 0 ) ( >= lam14n3 0 ) ( > ( + ( * 1 lam14n0 ) ( * Nl2CT1 lam14n2 ) ( * Nl2CT2 lam14n3 ) ( - 1 ( - ( + ( + 0 0 ) ( * 1 UndefDef1undef11_CT ) ) ) ) ) 0 ) ( = ( + ( * ( - 1 ) lam14n1 ) ( * Nl2a^01 lam14n2 ) ( * Nl2a^02 lam14n3 ) ( - ( - ( * UndefDef1undef11_a^0 1 ) ) ) ) 0 ) ( = ( + ( * ( - 1 ) lam14n1 ) ( * Nl2b^01 lam14n2 ) ( * Nl2b^02 lam14n3 ) ( - ( - ( * UndefDef1undef11_b^0 1 ) ) ) ) 0 ) ( = ( + ( * ( - 1 ) lam14n1 ) ( * Nl2c^01 lam14n2 ) ( * Nl2c^02 lam14n3 ) ( - ( - ( * UndefDef1undef11_c^0 1 ) ) ) ) 0 ) ( = ( + ( * ( - 1 ) lam14n1 ) ( * Nl2d^01 lam14n2 ) ( * Nl2d^02 lam14n3 ) ( - ( - ( * UndefDef1undef11_d^0 1 ) ) ) ) 0 ) ( = ( + ( * 1 lam14n0 ) ( * ( - 1 ) lam14n1 ) ( * Nl2e^01 lam14n2 ) ( * Nl2e^02 lam14n3 ) ( - ( - ( + 1 ( * UndefDef1undef11_e^0 1 ) ) ) ) ) 0 ) ) ( or ( = UndefCntr1_undef11 0 ) ( and ( >= lam15n0 0 ) ( >= lam15n1 0 ) ( >= lam15n2 0 ) ( >= lam15n3 0 ) ( > ( + ( * 1 lam15n0 ) ( * Nl2CT1 lam15n2 ) ( * Nl2CT2 lam15n3 ) ( - 1 ( + ( + ( + ( + ( + ( + UndefCntr1_CT 0 ) 0 ) 0 ) 0 ) 0 ) ( * UndefCntr1_undef11 UndefDef1undef11_CT ) ) ) ) 0 ) ( = ( + ( * ( - 1 ) lam15n1 ) ( * Nl2a^01 lam15n2 ) ( * Nl2a^02 lam15n3 ) ( - ( + UndefCntr1_a^0 ( * UndefDef1undef11_a^0 UndefCntr1_undef11 ) ) ) ) 0 ) ( = ( + ( * ( - 1 ) lam15n1 ) ( * Nl2b^01 lam15n2 ) ( * Nl2b^02 lam15n3 ) ( - ( + UndefCntr1_b^0 ( * UndefDef1undef11_b^0 UndefCntr1_undef11 ) ) ) ) 0 ) ( = ( + ( * ( - 1 ) lam15n1 ) ( * Nl2c^01 lam15n2 ) ( * Nl2c^02 lam15n3 ) ( - ( + UndefCntr1_c^0 ( * UndefDef1undef11_c^0 UndefCntr1_undef11 ) ) ) ) 0 ) ( = ( + ( * ( - 1 ) lam15n1 ) ( * Nl2d^01 lam15n2 ) ( * Nl2d^02 lam15n3 ) ( - ( + UndefCntr1_d^0 ( * UndefDef1undef11_d^0 UndefCntr1_undef11 ) ) ) ) 0 ) ( = ( + ( * 1 lam15n0 ) ( * ( - 1 ) lam15n1 ) ( * Nl2e^01 lam15n2 ) ( * Nl2e^02 lam15n3 ) ( - ( + UndefCntr1_e^0 ( * UndefDef1undef11_e^0 UndefCntr1_undef11 ) ) ) ) 0 ) ) ) ) ))
(assert ( and ( >= lam16n0 0 ) ( >= lam16n1 0 ) ( >= lam16n2 0 ) ( >= lam16n3 0 ) ( >= lam16n4 0 ) ( > ( + ( * Nl2CT1 lam16n3 ) ( * Nl2CT2 lam16n4 ) ( - 1 ) ) 0 ) ( = ( + ( * ( - 1 ) lam16n0 ) ( * Nl2a^01 lam16n3 ) ( * Nl2a^02 lam16n4 ) ) 0 ) ( = ( + ( * ( - 1 ) lam16n0 ) ( * Nl2b^01 lam16n3 ) ( * Nl2b^02 lam16n4 ) ) 0 ) ( = ( + ( * ( - 1 ) lam16n0 ) ( * Nl2c^01 lam16n3 ) ( * Nl2c^02 lam16n4 ) ) 0 ) ( = ( + ( * ( - 1 ) lam16n0 ) ( * ( - 1 ) lam16n1 ) ( * Nl2d^01 lam16n3 ) ( * Nl2d^02 lam16n4 ) ) 0 ) ( = ( + ( * ( - 1 ) lam16n0 ) ( * ( - 1 ) lam16n2 ) ( * Nl2e^01 lam16n3 ) ( * Nl2e^02 lam16n4 ) ) 0 ) ))
(assert ( and ( and ( <= ( + Nl2CT1 ( * Nl2d^01 FV_d^0_2 ) ( * Nl2a^01 FV_a^0_2 ) ( * Nl2b^01 FV_b^0_2 ) ( * Nl2c^01 FV_c^0_2 ) ( * Nl2e^01 FV_e^0_2 ) ) 0 ) ( <= ( + Nl2CT2 ( * Nl2d^02 FV_d^0_2 ) ( * Nl2a^02 FV_a^0_2 ) ( * Nl2b^02 FV_b^0_2 ) ( * Nl2c^02 FV_c^0_2 ) ( * Nl2e^02 FV_e^0_2 ) ) 0 ) ) ( or ( and ( <= ( + 1 FV_d^0_2 ) 0 ) ( <= ( + ( * ( - 1 ) FV_d^0_2 ) ( * ( - 1 ) FV_a^0_2 ) ( * ( - 1 ) FV_b^0_2 ) ( * ( - 1 ) FV_c^0_2 ) ( * ( - 1 ) FV_e^0_2 ) ) 0 ) ( = ( + FV_d^0_2 FV_undef22_2 ) 0 ) ) ( and ( <= ( + 1 FV_e^0_2 ) 0 ) ( <= ( + ( * ( - 1 ) FV_d^0_2 ) ( * ( - 1 ) FV_a^0_2 ) ( * ( - 1 ) FV_b^0_2 ) ( * ( - 1 ) FV_c^0_2 ) ( * ( - 1 ) FV_e^0_2 ) ) 0 ) ( = ( + FV_e^0_2 FV_undef11_2 ) 0 ) ) ( <= ( + 1 FV_d^0_2 FV_a^0_2 FV_b^0_2 FV_c^0_2 FV_e^0_2 ) 0 ) ) ))
(assert ( and ( and ( <= ( + Nl2CT1 ( * Nl2d^01 FV_d^0_2 ) ( * Nl2a^01 FV_a^0_2 ) ( * Nl2b^01 FV_b^0_2 ) ( * Nl2c^01 FV_c^0_2 ) ( * Nl2e^01 FV_e^0_2 ) ) 0 ) ( <= ( + Nl2CT2 ( * Nl2d^02 FV_d^0_2 ) ( * Nl2a^02 FV_a^0_2 ) ( * Nl2b^02 FV_b^0_2 ) ( * Nl2c^02 FV_c^0_2 ) ( * Nl2e^02 FV_e^0_2 ) ) 0 ) ) ( <= ( + 1 FV_d^0_2 FV_a^0_2 FV_b^0_2 FV_c^0_2 FV_e^0_2 ) 0 ) ))
(check-sat)
(exit)
